Test: battleship-15-15-unsat.cnf
Options: -no-inverting-opt
WARNING: for repeatability, setting FPU to use double precision
============================[ Problem Statistics ]=============================
|                                                                             |
|  Number of symmetries:           10                                         |
|  Number of invertingSyms:         0                                         |
|  Number of variables:           225                                         |
|  Number of clauses:            1800                                         |
|  Parse time:                   0.00 s                                       |
|                                                                             |
============================[ Search Statistics ]==============================
| Conflicts |          ORIGINAL         |          LEARNT          | Progress |
|           |    Vars  Clauses Literals |    Limit  Clauses Lit/Cl |          |
===============================================================================
|       100 |     225     1800     6525 |      660      141     86 |  0.002 % |
|       250 |     225     1800     6525 |      726      291     70 |  0.002 % |
|       475 |     225     1800     6525 |      798      516     65 |  0.002 % |
|       812 |     225     1800     6525 |      878      429     55 |  0.002 % |
|      1318 |     225     1800     6525 |      966      473     53 |  0.002 % |
|      2077 |     225     1800     6525 |     1062      712     49 |  0.002 % |
|      3216 |     225     1800     6525 |     1169      708     54 |  0.002 % |
|      4924 |     225     1800     6525 |     1286     1171     55 |  0.002 % |
|      7486 |     225     1800     6525 |     1414      935     49 |  0.002 % |
|     11330 |     225     1800     6525 |     1556     1117     52 |  0.002 % |
|     17096 |     225     1800     6525 |     1711     1176     56 |  0.002 % |
|     25745 |     225     1800     6525 |     1883     1777     48 |  0.002 % |
|     38719 |     225     1800     6525 |     2071     1022     54 |  0.002 % |
|     58180 |     225     1800     6525 |     2278     1091     53 |  0.002 % |
|     87372 |     225     1800     6525 |     2506     1797     63 |  0.002 % |
|    131161 |     225     1800     6525 |     2756     1531     52 |  0.002 % |
|    196845 |     225     1800     6525 |     3032     1972     56 |  0.002 % |
|    295371 |     225     1800     6525 |     3335     2364     52 |  0.002 % |
|    443160 |     225     1800     6525 |     3669     3290     54 |  0.002 % |
|    664843 |     225     1800     6525 |     4036     3247     58 |  0.002 % |
|    997368 |     225     1800     6525 |     4440     2404     52 |  0.002 % |
|   1496156 |     225     1800     6525 |     4884     4398     56 |  0.002 % |
|   2244338 |     225     1800     6525 |     5372     2525     63 |  0.002 % |
|   3366612 |     225     1800     6525 |     5909     3710     56 |  0.002 % |
|   5050023 |     225     1800     6525 |     6500     4383     69 |  0.002 % |
===============================================================================
restarts              : 8591
conflicts             : 5483266        (29461 /sec)
symconflicts          : 908            (5 /sec)
decisions             : 7252565        (0.00 % random) (38967 /sec)
propagations          : 155851829      (837374 /sec)
sympropagations       : 19620          (105 /sec)
conflict literals     : 330260297      (8.77 % deleted)
literals     : 330260297      (8.77 % deleted)

HEURISTIC USAGES
random                : 0           
activity w/ lookahead : 0           
activity no lookahead : 0           
original sp           : 7252565     
sym count             : 0           

Memory used           : 16.00 MB
CPU time              : 186.12 s

UNSATISFIABLE
